mixintcount/benchmarks/random_v2l/6_6_3162.in
24 8
#	x1	x2	x3	x4	x5	x6;		0 = Real; 1 = Integer
	1	1	1	1	1	1
1	0	9	0	1	-7	9	2135
1	9	-7	4	-10	-7	-4	-413
1	0	10	0	-5	-10	-5	1381
1	10	-3	-6	-8	-1	-8	-127
1	-7	-5	9	3	-9	-4	-1750
1	-7	-5	5	-9	-4	-4	2517
1	-1	2	1	9	-1	-10	1829
1	-3	-6	8	-5	1	-9	2322
1	9	-9	-4	-9	-4	-8	2091
1	-4	-3	4	-1	0	-2	1724
1	6	4	-2	-5	-7	10	-1212
1	1	8	-9	8	-9	9	-2702
1	1	0	0	0	0	0	3162
1	-1	0	0	0	0	0	3162
1	0	1	0	0	0	0	3162
1	0	-1	0	0	0	0	3162
1	0	0	1	0	0	0	3162
1	0	0	-1	0	0	0	3162
1	0	0	0	1	0	0	3162
1	0	0	0	-1	0	0	3162
1	0	0	0	0	1	0	3162
1	0	0	0	0	-1	0	3162
1	0	0	0	0	0	1	3162
1	0	0	0	0	0	-1	3162
